58 58
4 9
31 26
47 1
52 20
18 2
2 10
37 16
28 22
51 19
30 29
35 15
39 5
34 21
44 16
5 24
33 28
48 12
38 2
10 10
12 8
20 14
6 11
11 19
55 14
42 20
32 23
3 5
56 6
41 13
58 4
36 26
15 23
53 28
13 18
17 24
21 6
25 29
54 25
1 4
7 27
46 25
19 7
27 27
23 17
16 9
49 21
14 15
43 11
8 13
57 3
50 12
26 7
22 17
40 3
29 22
9 1
45 8
24 18
